\* Paris_Visit_-_Max._number_of_sites_(appreciation) *\
Maximize
Max._number_of_sites: 5 AC + 3 AT + 4 BS + 4 CA + 5 CN + CP + 3 JT + 4 ML
 + 2 MO + 3 PC + SC + 5 TE + 2 TM
Subject To
Max._appreciation: 5 AC + 3 AT + 4 BS + 4 CA + 5 CN + CP + 3 JT + 4 ML + 2 MO
 + 3 PC + SC + 5 TE + 2 TM <= 27
Binaries
AC
AT
BS
CA
CN
CP
JT
ML
MO
PC
SC
TE
TM
End
